sat
(:added-eqs                   1247
 :arith-eq-adapter            729
 :arith-bound-propagations-lp 131
 :arith-branch                224
 :arith-conflicts             65
 :arith-cube-calls            56
 :arith-dio-calls             224
 :arith-diseq                 424
 :arith-fixed-eqs             89
 :arith-gcd-calls             225
 :arith-lower                 2375
 :arith-make-feasible         1431
 :arith-max-columns           838
 :arith-max-rows              303
 :arith-patches               225
 :arith-patches-success       1
 :arith-upper                 1781
 :binary-propagations         1424
 :conflicts                   103
 :decisions                   1009
 :del-clause                  652
 :final-checks                225
 :max-memory                  24.73
 :memory                      20.36
 :mk-bool-var                 3843
 :mk-clause                   868
 :mk-clause-binary            975
 :num-allocs                  37495327
 :num-checks                  1
 :propagations                1694
 :restarts                    1
 :rlimit-count                310917
 :solve-eqs-elim-vars         426
 :solve-eqs-steps             3065
 :time                        0.21
 :total-time                  0.29)
